
--- Job Assignment_3_a.gms Start 12/30/21 22:59:37 37.1.0 r07954d5 WEX-WEI x86 64bit/MS Windows
--- Applying:
    D:\DESKTOP\37\gmsprmNT.txt
--- GAMS Parameters defined
    Input C:\Users\Administrator\Documents\gamsdir\projdir\Assignment_3_a.gms
    PageWidth 80
    PageSize 0
    PageContr 3
    Action CE
    ScrDir C:\Users\Administrator\Documents\gamsdir\projdir\225a\
    SysDir D:\DESKTOP\37\
    WorkDir C:\Users\Administrator\Documents\gamsdir\projdir\
    LogOption 3
    DFormat 0
    TFormat 0
    ErrorLog 99
    IDE 1
Licensee: GAMS Demo license for Melis Tuncer             G211223|0002CO-GEN
          Bogazici University, Turkey                              DL056714
          C:\Users\Administrator\Documents\GAMS\gamslice.txt
          melistuncer7@hotmail.com, Melis Tuncer                           
          Demo license for demonstration and instructional purposes only
Processor information: 1 socket(s), 4 core(s), and 8 thread(s) available
GAMS 37.1.0   Copyright (C) 1987-2021 GAMS Development. All rights reserved
--- Starting compilation
--- Assignment_3_a.gms(57) 3 Mb
--- Starting execution: elapsed 0:00:00.112
--- Assignment_3_a.gms(55) 4 Mb
--- Generating MIP model Untitled_3
--- Assignment_3_a.gms(57) 4 Mb
---   59 rows  49 columns  181 non-zeroes
---   48 discrete-columns
--- Executing CPLEX (Solvelink=2): elapsed 0:00:00.165

IBM ILOG CPLEX   37.1.0 r07954d5 Released Nov 11, 2021 WEI x86 64bit/MS Window

--- *** This solver runs with a demo license. No commercial use.

Reading parameter(s) from "C:\Users\Administrator\Documents\gamsdir\projdir\cplex.opt"
>>  objrng=all
>>  rhsrng=all
Finished reading from "C:\Users\Administrator\Documents\gamsdir\projdir\cplex.opt"

--- GMO setup time: 0.00s
--- GMO memory 0.51 Mb (peak 0.51 Mb)
--- Dictionary memory 0.00 Mb
--- Cplex 20.1.0.1 link memory 0.00 Mb (peak 0.01 Mb)
--- Starting Cplex

Version identifier: 20.1.0.1 | 2021-04-07 | 3a818710c
CPXPARAM_Advance                                 0
CPXPARAM_Threads                                 1
CPXPARAM_MIP_Display                             4
CPXPARAM_MIP_Pool_Capacity                       0
CPXPARAM_MIP_Tolerances_AbsMIPGap                0
Generic callback                                 0x50
Tried aggregator 1 time.
MIP Presolve eliminated 0 rows and 1 columns.
MIP Presolve modified 24 coefficients.
Reduced MIP has 58 rows, 48 columns, and 144 nonzeros.
Reduced MIP has 24 binaries, 24 generals, 0 SOSs, and 0 indicators.
Presolve time = 0.09 sec. (0.08 ticks)
Found incumbent of value 7135.000000 after 0.09 sec. (0.24 ticks)
Probing time = 0.00 sec. (0.01 ticks)
Tried aggregator 1 time.
Detecting symmetries...
MIP Presolve modified 20 coefficients.
Reduced MIP has 58 rows, 48 columns, and 144 nonzeros.
Reduced MIP has 24 binaries, 24 generals, 0 SOSs, and 0 indicators.
Presolve time = 0.02 sec. (0.10 ticks)
Probing time = 0.00 sec. (0.01 ticks)
MIP emphasis: balance optimality and feasibility.
MIP search method: dynamic search.
Parallel mode: none, using 1 thread.
Tried aggregator 1 time.
LP Presolve eliminated 24 rows and 0 columns.
Aggregator did 24 substitutions.
Reduced LP has 10 rows, 24 columns, and 48 nonzeros.
Presolve time = 0.00 sec. (0.04 ticks)

Iteration log . . .
Iteration:     1   Dual objective     =          1350.000000
Initializing dual steep norms . . .

Iteration log . . .
Iteration:     1   Dual objective     =          5085.000000
Root relaxation solution time = 0.02 sec. (0.09 ticks)

        Nodes                                         Cuts/
   Node  Left     Objective  IInf  Best Integer    Best Bound    ItCnt     Gap

*     0+    0                         7135.0000        0.0000           100.00%
Found incumbent of value 7135.000000 after 0.13 sec. (0.51 ticks)
      0     0     5085.0000     2     7135.0000     5085.0000        9   28.73%
*     0+    0                         5470.0000     5085.0000             7.04%
Found incumbent of value 5470.000000 after 0.13 sec. (0.57 ticks)
      0     0     5197.1429    10     5470.0000       Cuts: 5       16    4.99%
      0     0     5250.0000     1     5470.0000       Cuts: 7       23    4.02%
      0     0     5256.8996    27     5470.0000   Flowcuts: 3       31    3.90%
      0     0     5310.2239    10     5470.0000       Cuts: 8       42    2.92%
      0     0     5310.4714    15     5470.0000    MIRcuts: 1       43    2.92%
Detecting symmetries...
      0     0     5310.8481    24     5470.0000       Cuts: 2       46    2.91%
      0     0     5335.1177    24     5470.0000    MIRcuts: 2       53    2.47%
      0     0     5349.7400    16     5470.0000       Cuts: 2       65    2.20%
      0     0     5354.7564    23     5470.0000   Flowcuts: 1       70    2.11%
      0     0     5355.7119     6     5470.0000       Cuts: 3       78    2.09%
*     0+    0                         5380.0000     5355.7119             0.45%
Found incumbent of value 5380.000000 after 0.16 sec. (3.17 ticks)
Detecting symmetries...
      0     2     5355.7119     6     5380.0000     5355.7130       78    0.45%
Elapsed time = 0.17 sec. (3.45 ticks, tree = 0.01 MB)

Implied bound cuts applied:  2
Flow cuts applied:  8
Mixed integer rounding cuts applied:  3

Root node processing (before b&c):
  Real time             =    0.17 sec. (3.45 ticks)
Sequential b&c:
  Real time             =    0.00 sec. (0.07 ticks)
                          ------------
Total (root+branch&cut) =    0.17 sec. (3.52 ticks)

--- MIP status (101): integer optimal solution.
--- Cplex Time: 0.17sec (det. 3.52 ticks)

--- Fixing integer variables and solving final LP...

Version identifier: 20.1.0.1 | 2021-04-07 | 3a818710c
CPXPARAM_Advance                                 2
CPXPARAM_Threads                                 1
CPXPARAM_MIP_Display                             4
CPXPARAM_MIP_Pool_Capacity                       0
CPXPARAM_MIP_Tolerances_AbsMIPGap                0
Tried aggregator 1 time.
LP Presolve eliminated 58 rows and 49 columns.
All rows and columns eliminated.
Presolve time = 0.02 sec. (0.02 ticks)

--- Fixed MIP status (1): optimal.
--- Cplex Time: 0.02sec (det. 0.04 ticks)

--- Start ranging / sensitivity analysis...
--- Right-hand-side ranging...

EQUATION NAME                            LOWER           CURRENT             UPPER
-------------                            -----           -------             -----
cost                                      -INF                NA              +INF   
supply(1)                                  290               290              +INF   
supply(2)                                  220               220              +INF   
supply(3)                                  180               180              +INF   
supply(4)                                  280               280              +INF   
demand(1)                                 -INF               180               180   
demand(2)                                 -INF               200               200   
demand(3)                                 -INF               160               160   
demand(4)                                 -INF               140               140   
demand(5)                                 -INF               250               250   
demand(Dummy)                             -INF                40                40   
yisusedornot(1.1)                            0                 0              +INF   
yisusedornot(1.2)                            0                 0              +INF   
yisusedornot(1.3)                       -99959                 0              +INF   
yisusedornot(1.4)                            0                 0              +INF   
yisusedornot(1.5)                       -99749                 0              +INF   
yisusedornot(1.Dummy)                        0                 0              +INF   
yisusedornot(2.1)                       -99819                 0              +INF   
yisusedornot(2.2)                            0                 0              +INF   
yisusedornot(2.3)                            0                 0              +INF   
yisusedornot(2.4)                            0                 0              +INF   
yisusedornot(2.5)                            0                 0              +INF   
yisusedornot(2.Dummy)                   -99959                 0              +INF   
yisusedornot(3.1)                            0                 0              +INF   
yisusedornot(3.2)                       -99939                 0              +INF   
yisusedornot(3.3)                       -99879                 0              +INF   
yisusedornot(3.4)                            0                 0              +INF   
yisusedornot(3.5)                            0                 0              +INF   
yisusedornot(3.Dummy)                        0                 0              +INF   
yisusedornot(4.1)                            0                 0              +INF   
yisusedornot(4.2)                       -99859                 0              +INF   
yisusedornot(4.3)                            0                 0              +INF   
yisusedornot(4.4)                       -99859                 0              +INF   
yisusedornot(4.5)                            0                 0              +INF   
yisusedornot(4.Dummy)                        0                 0              +INF   
correction(1.1)                              0                 0              +INF   
correction(1.2)                              0                 0              +INF   
correction(1.3)                            -39                 0              +INF   
correction(1.4)                              0                 0              +INF   
correction(1.5)                           -249                 0              +INF   
correction(1.Dummy)                          0                 0              +INF   
correction(2.1)                           -179                 0              +INF   
correction(2.2)                              0                 0              +INF   
correction(2.3)                              0                 0              +INF   
correction(2.4)                              0                 0              +INF   
correction(2.5)                              0                 0              +INF   
correction(2.Dummy)                        -39                 0              +INF   
correction(3.1)                              0                 0              +INF   
correction(3.2)                            -59                 0              +INF   
correction(3.3)                           -119                 0              +INF   
correction(3.4)                              0                 0              +INF   
correction(3.5)                              0                 0              +INF   
correction(3.Dummy)                          0                 0              +INF   
correction(4.1)                              0                 0              +INF   
correction(4.2)                           -139                 0              +INF   
correction(4.3)                              0                 0              +INF   
correction(4.4)                           -139                 0              +INF   
correction(4.5)                              0                 0              +INF   
correction(4.Dummy)                          0                 0              +INF   

--- Objective ranging...

VARIABLE NAME                            LOWER           CURRENT             UPPER
-------------                            -----           -------             -----
z                                         -INF                NA              +INF   
x(1.1)                                    -INF               5.5              +INF   
x(1.2)                                    -INF                 6              +INF   
x(1.3)                                    -INF                 8              +INF   
x(1.4)                                    -INF               3.5              +INF   
x(1.5)                                    -INF                 4              +INF   
x(1.Dummy)                                -INF                 0              +INF   
x(2.1)                                    -INF                 3              +INF   
x(2.2)                                    -INF               4.5              +INF   
x(2.3)                                    -INF                 4              +INF   
x(2.4)                                    -INF               6.5              +INF   
x(2.5)                                    -INF                 6              +INF   
x(2.Dummy)                                -INF                 0              +INF   
x(3.1)                                    -INF                11              +INF   
x(3.2)                                    -INF                 6              +INF   
x(3.3)                                    -INF                 3              +INF   
x(3.4)                                    -INF                 4              +INF   
x(3.5)                                    -INF               4.5              +INF   
x(3.Dummy)                                -INF                 0              +INF   
x(4.1)                                    -INF                 5              +INF   
x(4.2)                                    -INF               4.5              +INF   
x(4.3)                                    -INF                 7              +INF   
x(4.4)                                    -INF                 3              +INF   
x(4.5)                                    -INF               7.5              +INF   
x(4.Dummy)                                -INF                 0              +INF   
y(1.1)                                    -INF               350              +INF   
y(1.2)                                    -INF               350              +INF   
y(1.3)                                    -INF                 0              +INF   
y(1.4)                                    -INF               350              +INF   
y(1.5)                                    -INF               350              +INF   
y(1.Dummy)                                -INF                 0              +INF   
y(2.1)                                    -INF               350              +INF   
y(2.2)                                    -INF               350              +INF   
y(2.3)                                    -INF               350              +INF   
y(2.4)                                    -INF               350              +INF   
y(2.5)                                    -INF               350              +INF   
y(2.Dummy)                                -INF                 0              +INF   
y(3.1)                                    -INF                 0              +INF   
y(3.2)                                    -INF                 0              +INF   
y(3.3)                                    -INF               350              +INF   
y(3.4)                                    -INF               350              +INF   
y(3.5)                                    -INF               350              +INF   
y(3.Dummy)                                -INF                 0              +INF   
y(4.1)                                    -INF               350              +INF   
y(4.2)                                    -INF               350              +INF   
y(4.3)                                    -INF               350              +INF   
y(4.4)                                    -INF               350              +INF   
y(4.5)                                    -INF                 0              +INF   
y(4.Dummy)                                -INF                 0              +INF   


Proven optimal solution
MIP Solution:         5380.000000    (87 iterations, 3 nodes)
Final Solve:          5380.000000    (0 iterations)

Best possible:        5380.000000
Absolute gap:            0.000000
Relative gap:            0.000000

--- Reading solution for model Untitled_3
--- Executing after solve: elapsed 0:00:00.791
*** Status: Normal completion
--- Job Assignment_3_a.gms Stop 12/30/21 22:59:37 elapsed 0:00:00.791
